NAME : G100_3212_01
COMMENT : Generated CVRP instance (n=100)
TYPE : CVRP
DIMENSION : 101
EDGE_WEIGHT_TYPE : EUC_2D
CAPACITY : 6
NODE_COORD_SECTION
1    0    0   
2    702  808 
3    304  853 
4    504  887 
5    408  7   
6    629  854 
7    605  774 
8    482  630 
9    729  596 
10   563  811 
11   445  181 
12   377  46  
13   421  135 
14   584  815 
15   254  15  
16   405  895 
17   606  784 
18   195  20  
19   149  96  
20   584  744 
21   321  144 
22   351  734 
23   336  187 
24   408  29  
25   217  880 
26   456  798 
27   612  765 
28   344  93  
29   466  818 
30   433  49  
31   594  759 
32   391  143 
33   393  763 
34   418  8   
35   349  857 
36   607  560 
37   52   878 
38   705  684 
39   525  863 
40   356  889 
41   355  900 
42   232  118 
43   367  172 
44   264  6   
45   387  150 
46   540  783 
47   617  850 
48   345  861 
49   656  942 
50   618  723 
51   460  121 
52   441  855 
53   312  970 
54   383  814 
55   270  70  
56   325  808 
57   636  767 
58   385  17  
59   608  675 
60   435  164 
61   625  874 
62   353  842 
63   658  761 
64   284  663 
65   480  821 
66   606  872 
67   628  728 
68   349  111 
69   301  983 
70   310  775 
71   617  685 
72   633  800 
73   319  67  
74   459  718 
75   340  80  
76   688  64  
77   391  76  
78   250  891 
79   371  790 
80   297  151 
81   508  926 
82   585  783 
83   366  186 
84   294  179 
85   297  44  
86   324  879 
87   313  879 
88   580  750 
89   427  763 
90   621  531 
91   605  797 
92   593  716 
93   361  64  
94   520  817 
95   295  61  
96   462  49  
97   328  808 
98   309  84  
99   457  80  
100  317  149 
101  710  727 
DEMAND_SECTION
1    0   
2    1   
3    1   
4    1   
5    1   
6    1   
7    1   
8    1   
9    1   
10   1   
11   1   
12   1   
13   1   
14   1   
15   1   
16   1   
17   1   
18   1   
19   1   
20   1   
21   1   
22   1   
23   1   
24   1   
25   1   
26   1   
27   1   
28   1   
29   1   
30   1   
31   1   
32   1   
33   1   
34   1   
35   1   
36   1   
37   1   
38   1   
39   1   
40   1   
41   1   
42   1   
43   1   
44   1   
45   1   
46   1   
47   1   
48   1   
49   1   
50   1   
51   1   
52   1   
53   1   
54   1   
55   1   
56   1   
57   1   
58   1   
59   1   
60   1   
61   1   
62   1   
63   1   
64   1   
65   1   
66   1   
67   1   
68   1   
69   1   
70   1   
71   1   
72   1   
73   1   
74   1   
75   1   
76   1   
77   1   
78   1   
79   1   
80   1   
81   1   
82   1   
83   1   
84   1   
85   1   
86   1   
87   1   
88   1   
89   1   
90   1   
91   1   
92   1   
93   1   
94   1   
95   1   
96   1   
97   1   
98   1   
99   1   
100  1   
101  1   
DEPOT_SECTION
1
-1
EOF
